Tried aggregator 2 times.
MIP Presolve eliminated 10 rows and 6 columns.
MIP Presolve modified 60 coefficients.
Aggregator did 60 substitutions.
Reduced MIP has 211 rows, 191 columns, and 494 nonzeros.
Reduced MIP has 120 binaries, 11 generals, 0 SOSs, and 0 indicators.
Presolve time = 0.00 sec. (0.44 ticks)
Found incumbent of value 9.000000 after 0.00 sec. (0.76 ticks)
Probing fixed 18 vars, tightened 32 bounds.
Probing time = 0.00 sec. (0.63 ticks)
Tried aggregator 3 times.
MIP Presolve eliminated 26 rows and 26 columns.
Aggregator did 64 substitutions.
Reduced MIP has 121 rows, 101 columns, and 308 nonzeros.
Reduced MIP has 76 binaries, 20 generals, 0 SOSs, and 0 indicators.
Presolve time = 0.00 sec. (0.52 ticks)
Probing time = 0.00 sec. (0.17 ticks)
Tried aggregator 1 time.
Reduced MIP has 121 rows, 101 columns, and 308 nonzeros.
Reduced MIP has 76 binaries, 20 generals, 0 SOSs, and 0 indicators.
Presolve time = 0.00 sec. (0.15 ticks)
Probing time = 0.00 sec. (0.17 ticks)
Clique table members: 80.
MIP emphasis: balance optimality and feasibility.
MIP search method: dynamic search.
Parallel mode: deterministic, using up to 4 threads.
Root relaxation solution time = 0.00 sec. (0.14 ticks)

        Nodes                                         Cuts/
   Node  Left     Objective  IInf  Best Integer    Best Bound    ItCnt     Gap

*     0+    0                            9.0000        5.0000       29   44.44%
      0     0        5.0000    40        9.0000        5.0000       29   44.44%
      0     0        5.0000     9        9.0000       Cuts: 2       31   44.44%
*     0+    0                            5.0000        5.0000       31    0.00%
      0     0        cutoff              5.0000        5.0000       31    0.00%
Elapsed time = 0.03 sec. (6.02 ticks, tree = 0.00 MB, solutions = 2)

Implied bound cuts applied:  1
Gomory fractional cuts applied:  1

Root node processing (before b&c):
  Real time             =    0.03 sec. (6.03 ticks)
Parallel b&c, 4 threads:
  Real time             =    0.00 sec. (0.00 ticks)
  Sync time (average)   =    0.00 sec.
  Wait time (average)   =    0.00 sec.
                          ------------
Total (root+branch&cut) =    0.03 sec. (6.03 ticks)
